data/instances/vrp_files/train_8.vrp
NAME : 8
COMMENT : Generated instance No. 8
TYPE : CVRP
DIMENSION : 21
EDGE_WEIGHT_TYPE : EUC_2D
CAPACITY : 30
NODE_COORD_SECTION
 1 26 376
 2 992 73
 3 553 969
 4 523 629
 5 695 454
 6 627 584
 7 901 45
 8 280 950
 9 890 455
 10 620 277
 11 188 463
 12 353 583
 13 77 974
 14 986 698
 15 536 309
 16 813 684
 17 162 910
 18 822 949
 19 725 613
 20 418 932
 21 866 45
DEMAND_SECTION
1 0
2 1
3 2
4 1
5 5
6 10
7 9
8 6
9 1
10 1
11 2
12 9
13 3
14 1
15 5
16 7
17 6
18 1
19 5
20 5
21 6
DEPOT_SECTION
 1
 -1
EOF